Maximize
  x_electronic + x_regular_thermometer
Subject To
  c1: x_electronic - 2.0 x_regular_thermometer >= 0
  c2: x_regular_thermometer >= 50
  c3: 3 x_electronic + 2 x_regular_thermometer <= 15000
End